Solver command line: ['C:\\Program Files\\IBM\\ILOG\\CPLEX_Studio2211\\cplex\\bin\\x64_win64\\cplex.exe']


Welcome to IBM(R) ILOG(R) CPLEX(R) Interactive Optimizer 22.1.1.0
  with Simplex, Mixed Integer & Barrier Optimizers
5725-A06 5725-A29 5724-Y48 5724-Y49 5724-Y54 5724-Y55 5655-Y21
Copyright IBM Corp. 1988, 2022.  All Rights Reserved.

Type 'help' for a list of available commands.
Type 'help' followed by a command name for more
information on commands.

CPLEX> Logfile 'cplex.log' closed.
Logfile 'C:\Users\wangy\Documents\GitHub\re_optimization\result_site_specific\tmpjdt32rzs.cplex.log' open.
CPLEX> Problem 'C:\Users\wangy\Documents\GitHub\re_optimization\result_site_specific\tmpwq2_gzx7.pyomo.lp' read.
Read time = 0.30 sec. (9.13 ticks)
CPLEX> Problem name         : C:\Users\wangy\Documents\GitHub\re_optimization\result_site_specific\tmpwq2_gzx7.pyomo.lp
Objective sense      : Minimize
Variables            :   65769  [Nneg: 35068,  Free: 8792,  Binary: 9,
                                 Other: 21900]
Objective nonzeros   :      17
Linear constraints   :   87665  [Less: 46741,  Greater: 5,  Equal: 40919]
  Nonzeros           :  225089
  RHS nonzeros       :    3667

Variables            : Min LB: 0.000000         Max UB: 1.000000       
Objective nonzeros   : Min   : 1.000000         Max   : 1.000000       
Linear constraints   :
  Nonzeros           : Min   : 0.001502783      Max   : 100000.0       
  RHS nonzeros       : Min   : 0.2240000        Max   : 100000.0       
CPLEX> Version identifier: 22.1.1.0 | 2022-11-27 | 9160aff4d
Tried aggregator 3 times.
MIP Presolve eliminated 53059 rows and 32617 columns.
Aggregator did 10336 substitutions.
Reduced MIP has 24270 rows, 22816 columns, and 72668 nonzeros.
Reduced MIP has 5 binaries, 0 generals, 0 SOSs, and 0 indicators.
Presolve time = 0.20 sec. (226.86 ticks)
Found incumbent of value 316944.827084 after 0.28 sec. (326.57 ticks)
Probing time = 0.01 sec. (1.27 ticks)
Tried aggregator 1 time.
Detecting symmetries...
Reduced MIP has 24270 rows, 22816 columns, and 72668 nonzeros.
Reduced MIP has 5 binaries, 0 generals, 0 SOSs, and 0 indicators.
Presolve time = 0.05 sec. (46.76 ticks)
Probing time = 0.00 sec. (1.17 ticks)
MIP emphasis: balance optimality and feasibility.
MIP search method: dynamic search.
Parallel mode: deterministic, using up to 16 threads.
Root relaxation solution time = 1.25 sec. (811.01 ticks)

        Nodes                                         Cuts/
   Node  Left     Objective  IInf  Best Integer    Best Bound    ItCnt     Gap

*     0+    0                       316944.8271   -13814.3006           104.36%
      0     0     9832.5015     1   316944.8271     9832.5015       61   96.90%
*     0+    0                        11437.1535     9832.5015            14.03%
*     0+    0                        10451.3625     9832.5015             5.92%
      0     0        cutoff          10451.3625                    719    0.00%
Elapsed time = 1.92 sec. (1694.83 ticks, tree = 0.01 MB, solutions = 3)

Root node processing (before b&c):
  Real time             =    1.92 sec. (1698.00 ticks)
Parallel b&c, 16 threads:
  Real time             =    0.00 sec. (0.00 ticks)
  Sync time (average)   =    0.00 sec.
  Wait time (average)   =    0.00 sec.
                          ------------
Total (root+branch&cut) =    1.92 sec. (1698.00 ticks)

Solution pool: 3 solutions saved.

MIP - Integer optimal solution:  Objective =  1.0451362477e+04
Solution time =    1.94 sec.  Iterations = 719  Nodes = 0
Deterministic time = 1698.19 ticks  (876.71 ticks/sec)

CPLEX> Incumbent solution written to file 'C:\Users\wangy\Documents\GitHub\re_optimization\result_site_specific\tmpqhh7gm2p.cplex.sol'.
CPLEX> 
